
Log started (V20.1.0.0) Tue Aug  9 00:48:32 2022


Problem 'pp.lp' read.
Read time = 0.00 sec. (0.00 ticks)
Version identifier: 20.1.0.0 | 2020-11-10 | 9bedb6d68
Tried aggregator 1 time.
No LP presolve or aggregator reductions.
Presolve time = 0.00 sec. (0.00 ticks)

Iteration log . . .
Iteration:     1   Dual infeasibility =             0.000000
Iteration:     2   Dual objective     =            46.000000

Dual simplex - Optimal:  Objective =  4.6000000000e+01
Solution time =    0.00 sec.  Iterations = 2 (1)
Deterministic time = 0.00 ticks  (4.29 ticks/sec)


Variable Name           Solution Value
x1                            8.000000
x2                           19.000000
